p cnf 56 204
c p weight -5 1 0
c p weight 5 -1 0
c p weight 9 6.12323399573676603586882014729198302312846062338790031898128063403419218957424163818359375E-17 0
c p weight -9 1 0
c p weight 10 1 0
c p weight -10 1 0
c p weight -7 1 0
c p weight 7 -1 0
c p weight -11 1 0
c p weight 11 -1 0
c p weight -13 1 0
c p weight 13 -1 0
c p weight -16 1 0
c p weight 16 -1 0
c p weight 20 6.12323399573676603586882014729198302312846062338790031898128063403419218957424163818359375E-17 0
c p weight -20 1 0
c p weight 21 1 0
c p weight -21 1 0
c p weight -18 1 0
c p weight 18 -1 0
c p weight -22 1 0
c p weight 22 -1 0
c p weight 26 0.70710678118654752440084436210485 0
c p weight -26 1 0
c p weight -24 1 0
c p weight 24 -1 0
c p weight -27 1 0
c p weight 27 -1 0
c p weight 32 0.70710678118654752440084436210485 0
c p weight -32 1 0
c p weight -30 1 0
c p weight 30 -1 0
c p weight -33 1 0
c p weight 33 -1 0
c p weight 38 0.70710678118654752440084436210485 0
c p weight -38 1 0
c p weight -36 1 0
c p weight 36 -1 0
c p weight -39 1 0
c p weight 39 -1 0
c p weight 43 6.12323399573676603586882014729198302312846062338790031898128063403419218957424163818359375E-17 0
c p weight -43 1 0
c p weight 44 1 0
c p weight -44 1 0
c p weight -41 1 0
c p weight 41 -1 0
c p weight -45 1 0
c p weight 45 -1 0
c p weight -47 1 0
c p weight 47 -1 0
c p weight -50 1 0
c p weight 50 -1 0
c p weight -53 1 0
c p weight 53 -1 0
c p weight 56 0.5 0
c p weight -56 1 0
56 0
-3 0
-1 0
-5 3 0
-5 4 0
5 -3 -4 0
6 3 -4 0
6 -3 4 0
-6 3 4 0
-6 -3 -4 0
-7 8 0
-7 6 0
-7 -3 0
7 -8 3 -6 0
8 -3 6 0
-8 3 6 0
-9 6 0
8 -9 -3 0
-8 -9 3 0
8 9 3 -6 0
-8 9 -3 -6 0
-10 6 0
8 -10 3 0
-8 -10 -3 0
8 10 -3 -6 0
-8 10 3 -6 0
-11 8 0
-11 6 0
11 -8 -6 0
12 8 -6 0
12 -8 6 0
-12 8 6 0
-12 -8 -6 0
-13 8 0
-13 2 0
-13 1 -12 0
-13 -1 12 0
13 -8 1 12 -2 0
13 -8 -1 -12 -2 0
15 8 -1 0
15 -8 1 0
-15 8 1 0
-15 -8 -1 0
14 12 -2 0
14 -12 2 0
-14 12 2 0
-14 -12 -2 0
-16 8 0
-16 14 0
16 -8 -14 0
17 8 -14 0
17 -8 14 0
-17 8 14 0
-17 -8 -14 0
-18 19 0
-18 17 0
-18 -8 0
18 -19 8 -17 0
19 -8 17 0
-19 8 17 0
-20 17 0
19 -20 -8 0
-19 -20 8 0
19 20 8 -17 0
-19 20 -8 -17 0
-21 17 0
19 -21 8 0
-19 -21 -8 0
19 21 -8 -17 0
-19 21 8 -17 0
-22 19 0
-22 17 0
22 -19 -17 0
23 19 -17 0
23 -19 17 0
-23 19 17 0
-23 -19 -17 0
-24 19 0
-24 23 0
-24 -25 0
24 25 -19 -23 0
25 19 -23 0
-25 19 23 0
26 -19 0
-26 19 0
-27 19 0
-27 2 0
-27 15 -25 0
-27 -15 25 0
27 -19 15 25 -2 0
27 -19 -15 -25 -2 0
29 19 -15 0
29 -19 15 0
-29 19 15 0
-29 -19 -15 0
28 25 -2 0
28 -25 2 0
-28 25 2 0
-28 -25 -2 0
-30 31 0
-30 29 0
-30 -2 0
30 -31 -29 2 0
31 29 -2 0
-31 29 2 0
32 -29 0
-32 29 0
-33 19 0
-33 31 0
-33 29 -28 0
-33 -29 28 0
33 -19 29 28 -31 0
33 -19 -29 -28 -31 0
35 19 -29 0
35 -19 29 0
-35 19 29 0
-35 -19 -29 0
34 28 -31 0
34 -28 31 0
-34 28 31 0
-34 -28 -31 0
-36 35 0
-36 31 0
-36 -37 0
36 37 -35 -31 0
37 35 -31 0
-37 35 31 0
38 -35 0
-38 35 0
-39 35 0
-39 37 0
39 -35 -37 0
40 35 -37 0
40 -35 37 0
-40 35 37 0
-40 -35 -37 0
-41 42 0
-41 40 0
-41 -35 0
41 -42 35 -40 0
42 -35 40 0
-42 35 40 0
-43 40 0
42 -43 -35 0
-42 -43 35 0
42 43 35 -40 0
-42 43 -35 -40 0
-44 40 0
42 -44 35 0
-42 -44 -35 0
42 44 -35 -40 0
-42 44 35 -40 0
-45 42 0
-45 40 0
45 -42 -40 0
46 42 -40 0
46 -42 40 0
-46 42 40 0
-46 -42 -40 0
-47 42 0
-47 34 0
-47 19 -46 0
-47 -19 46 0
47 -42 19 46 -34 0
47 -42 -19 -46 -34 0
49 42 -19 0
49 -42 19 0
-49 42 19 0
-49 -42 -19 0
48 46 -34 0
48 -46 34 0
-48 46 34 0
-48 -46 -34 0
-50 49 0
-50 48 0
-50 42 -34 0
-50 -42 34 0
50 -49 42 34 -48 0
50 -49 -42 -34 -48 0
52 49 -42 0
52 -49 42 0
-52 49 42 0
-52 -49 -42 0
51 34 -48 0
51 -34 48 0
-51 34 48 0
-51 -34 -48 0
-53 52 0
-53 51 0
-53 49 -48 0
-53 -49 48 0
53 -52 49 48 -51 0
53 -52 -49 -48 -51 0
55 52 -49 0
55 -52 49 0
-55 52 49 0
-55 -52 -49 0
54 48 -51 0
54 -48 51 0
-54 48 51 0
-54 -48 -51 0
-52 0
-55 0
-51 0
